p cnf 54 117
1 2 3 0
4 5 6 0
7 8 9 0
10 11 12 0
13 14 15 0
16 17 18 0
19 20 21 0
22 23 24 0
25 26 27 0
28 29 30 0
31 32 33 0
34 35 36 0
37 38 39 0
40 41 42 0
43 44 45 0
46 47 48 0
49 50 51 0
52 53 54 0
-1 -2 0
-1 -3 0
-2 -3 0
-4 -5 0
-4 -6 0
-5 -6 0
-7 -8 0
-7 -9 0
-8 -9 0
-10 -11 0
-10 -12 0
-11 -12 0
-13 -14 0
-13 -15 0
-14 -15 0
-16 -17 0
-16 -18 0
-17 -18 0
-19 -20 0
-19 -21 0
-20 -21 0
-22 -23 0
-22 -24 0
-23 -24 0
-25 -26 0
-25 -27 0
-26 -27 0
-28 -29 0
-28 -30 0
-29 -30 0
-31 -32 0
-31 -33 0
-32 -33 0
-34 -35 0
-34 -36 0
-35 -36 0
-37 -38 0
-37 -39 0
-38 -39 0
-40 -41 0
-40 -42 0
-41 -42 0
-43 -44 0
-43 -45 0
-44 -45 0
-46 -47 0
-46 -48 0
-47 -48 0
-49 -50 0
-49 -51 0
-50 -51 0
-52 -53 0
-52 -54 0
-53 -54 0
-4 -19 0
-5 -20 0
-6 -21 0
-7 -19 0
-8 -20 0
-9 -21 0
-7 -25 0
-8 -26 0
-9 -27 0
-7 -31 0
-8 -32 0
-9 -33 0
-16 -46 0
-17 -47 0
-18 -48 0
-19 -31 0
-20 -32 0
-21 -33 0
-22 -46 0
-23 -47 0
-24 -48 0
-25 -37 0
-26 -38 0
-27 -39 0
-28 -37 0
-29 -38 0
-30 -39 0
-40 -43 0
-41 -44 0
-42 -45 0
-40 -46 0
-41 -47 0
-42 -48 0
-40 -49 0
-41 -50 0
-42 -51 0
-40 -52 0
-41 -53 0
-42 -54 0
-46 -49 0
-47 -50 0
-48 -51 0
-46 -52 0
-47 -53 0
-48 -54 0
